
 102   30
  10   10   10   10   10   10   10   10   10   10   10   10   10   10   10   10   10   10   10   10   10   10   10   10   10   10   10   10   10   10

   0   0   0   0   0   0   0   0   0   0   0   0   0   0   0   0   0   0   0   0   0   0   0   0   0   0   0   0   0   0   0  30 2 3 4 5 6 7 8 9 10 11 12 13 14 15 16 17 18 19 20 21 22 24 25 28 29 30 31 34 36 37 
   8   0   0   0   0   0   0   0   0   0   3   0   0   0   1   0   0   0   0   0   0   0   1   0   0   0   2   0   0   4   0  15 101 61 59 58 53 50 48 47 46 43 42 41 38 26 23 
   3   0   0   0   0   0   0   0   0   0   0   0   0   0   0   0   0   0   0   1   0   0   0   0   0   0   0   0   0   0   0  14 101 63 59 57 52 50 48 45 43 42 41 39 27 26 
   7   0   0   0   1   0   0   0   0   0   0   0   0   0   0   0   0   0   0   0   0   0   0   0   0   0   0   0   0   0   0  16 101 98 95 93 64 63 62 60 59 56 48 45 43 42 38 26 
   5   0   0   0   0   0   0   0   0   1   0   0   0   1   0   0   0   2   0   0   0   8   0   0   0   0   3   0   1   0   0  21 98 92 91 86 68 67 66 64 63 62 61 59 58 56 52 51 50 48 46 45 41 
   9   0   3   0   0   0   0   0   0   9   0   1   1   0   0   0   0   0   0   0   1   0   0   0   0   0   0   0   0   0   0  17 101 100 99 98 95 92 91 89 65 64 63 55 50 48 47 42 40 
   7   0   0   0   0   0   1   0   1   0   2   7   0   0   0   0   5   7   0   0   0   0   0   0   0   0   5   0   0   0   0  15 101 98 97 95 93 90 83 63 62 60 59 55 53 43 26 
   6   1   0   0   0   0   0   0   0   0   0   3   4   0   0   0   5   4   0   0   0   0   0   0   1   0   0   2   0   0   0  14 101 100 98 89 87 60 59 56 55 52 50 44 42 33 
   9   0   6   0   0   0   0   4   0   0   5   0   0   0   0   0   0   0   0   0   0   0   7   0   0   0   0   9   0   0   0  19 101 100 98 97 95 93 91 90 89 84 64 62 60 58 57 55 53 49 42 
   6   0   0   0   5   0   0   0   0   0   0   0   0   7   0   0   0   0   0   0   0   0   0   0   0   0   0   0   0   0   0  17 96 94 92 91 90 88 81 67 64 63 62 59 58 52 50 42 41 
   9   0   0   0   0   4   0   0   0   0   8   0   0   0   0   0   0   0   1   0   0   0   0   2   0   0   0   0   0   0   0  16 97 96 92 91 84 81 68 67 64 63 56 54 50 48 41 39 
   6   9   0   0   0   0   0   0   5   0   0   0   0   0   0   0   0   0   0   0   0   0   0   0   0   0   0   0   0   0   0  13 101 99 95 94 93 92 63 62 58 45 43 42 38 
   8   0   0   0   0   6   0   0   0   0   0   5   0   0   7   0   0   0   0   0   0   0   6   3   0   0   6   0   0   0   0  16 101 100 98 97 96 94 87 67 62 61 60 59 58 45 43 42 
   8   0   0   4   0   3   0   0   0   0   0   0   0   0   0   0   0   0   0   0   0   0   0   9   0   0   0   6   0   0   0  16 101 100 98 97 93 92 91 89 84 83 67 58 55 54 48 32 
   8   0   5   0   6   0   0   4   0   0   0   0   0   0   0   0   0   0   0   0   0   2   0   0   0   0   5   0   0   0   0  19 99 98 97 93 90 89 88 87 81 67 65 64 63 62 59 57 56 51 42 
   7   0   0   0   0   4   0   4   0   0   0   9   0   0   9   0   0   0   6   0   0   0   0   0   5   0   0   0   0   0   0  15 100 98 97 95 94 92 88 66 59 54 53 52 51 50 35 
   9   0   0   0   0   0   0   0   8   0   0   0   0   0   0   0   0   0   0   0   0   0   0   0   0   0   0   4   4   0   0  15 101 99 95 94 91 87 65 63 62 61 60 52 51 45 42 
   3   0   0   0   0   0  10   0   0   0   9   0   7   0   0   0   0   0   7   0   0   0   6   4   0   3   0   0   0   0   0  16 100 97 94 93 92 91 90 88 81 78 67 63 62 59 49 42 
   8   0   0   0   0   0   0   0   7   0   0   0   0   0   0   0   5   5   0   0   0   0   0   0   0   0   7   0   0   0   0  21 100 99 97 95 94 93 88 87 85 83 81 79 74 71 66 65 61 60 59 57 54 
   4   0   0   0   6   0   0   0   0   0   0   0   0   0   7   1   0  10   0   0   0   5   0   0   0   0   0   0   0   0   0  16 98 96 91 89 86 71 67 66 65 62 56 55 54 52 51 50 
   1   0   0   0   0   0   0   7   0   0   0   0   0   0   0   8   0   0   0   0   0   0   5   0   0   9   0   0   0   2   0  16 101 100 99 97 96 95 94 87 84 81 78 76 63 62 57 43 
  10   0   0   5   0   0   0   0   0   0   0   0   0   0   0   4   0   0   0   0   0   0   0   0   7   0   0   0   0   0   0  15 99 97 95 92 91 89 88 84 83 81 78 67 65 61 42 
   4   7   0   0   3   0   0   0   5   0   7   0   0   0   0   0   8   0   0   0   0   0   0   0   8   0   0   0   0   0   0  21 100 98 96 93 92 91 89 87 86 85 84 83 82 79 77 68 65 63 62 60 55 
   4   0   9   0   0   0   0   0   0   0   0   0   0   0   0   7   0   0   0   7   0   0   0   0   0   0   0   0   0   0   0  17 101 97 94 89 88 87 81 79 78 71 67 66 65 59 54 51 50 
  10   0   0   0   0   0   0   0   0   0   0   0   0   0   0   0   0   0   0   0   0   0   0   0   5   0   0   8   0   0   0  11 101 98 95 88 84 83 81 63 62 48 42 
  10   0   0   0   0   0   0   0   0   0   0   0   0   0   0   0   0   0   0   0   0   0   0   0   0   0   0   0   0   0   0  22 100 99 96 94 92 91 89 88 86 85 84 81 79 76 75 71 70 68 67 66 65 54 
   1   0   0   0   0   0   0   0   0   0   0   0   0   0   0   0   0   0   0   0   0   0   0   0   0   0   6   0   0   0   0  21 98 97 96 95 92 91 89 88 87 85 84 81 76 74 71 70 66 65 62 56 54 
   9   0   0   0   0   0   0   0   0   0   0   0   0   0   0   0   0   0   0   0   6   0   0   0   0   0   0   0   0   0   2  23 96 95 94 93 92 90 86 85 84 83 82 81 80 79 78 77 76 73 70 68 67 63 62 
   6   0   0   0   0   0   0   4   0   0   0   0   7   0   0   0   0   0   0   0   0   0   0   0   0   0   0   0   0   5   0  21 100 98 96 94 92 90 89 85 83 82 81 80 77 76 71 70 68 67 66 65 56 
   9   0   0   0   0   0   0   0   0   0   7   0   5   0   3   0   0   0   0   0   4   0   0   0   0   0   0   0   0   0   0  17 98 96 95 88 87 83 81 79 76 75 74 71 70 66 61 58 54 
   7   0   0   0   0   0   0   0   0   6   0   0   0   0   0   0   0   0   0   0   0   0   0   0   0   0   0   4   0   0   0  12 96 92 90 89 84 83 74 67 63 58 55 54 
   3   0   0   0   0   0   7   0   0   0   0   0   0   0   5   0   0   0   0   0   0   0   7   0   5   0   0   0   0   0   0  20 99 95 94 90 87 86 85 82 80 79 78 77 76 74 72 71 70 66 65 64 
   6   0   0   0   0   0   0   0  10   5   0   0   0   0   0   0   0   5   4   0   0   0   0   0   0   0   0   0   0  10   0  18 93 92 91 90 88 85 83 82 81 79 77 75 74 71 70 69 67 65 
   9   0   3   0   0   0   0   0   0   8   0   0   0   0   0   0   3   0   0   0   0   0   0   6   0   0   0   0   0   0   0  10 98 93 90 87 77 73 71 62 55 51 
   8   0   0   0   0   3   0   0  10   0   0   7   0   0   0   7   0   0   0   0   0   0   0   0   0   0   0   0   0   0   6  16 91 89 87 86 85 84 81 79 76 75 71 70 69 68 67 65 
   2   0   0   0   7   0   0   0   0   0   4   0   0   0   0   7   0   7   0   0   0   0   0   0   0   0   0   0   0   0   0  15 99 95 93 91 89 86 81 79 78 75 74 72 71 70 57 
   9   8   0   0   0   8   0   0   0   0   0   0   0   0   4   0   0   0   0   0   8   0   0   0   0   0   0   0   0   0   0  16 101 100 94 91 89 86 82 79 78 77 76 71 70 69 68 67 
   6   0   9   0   0   0   0   0   0   0   0   0   0   8   0   0   6   0   0   0   0   0   0   0   0   0   0   0   0   0   0  14 97 96 90 87 84 81 78 77 75 74 70 67 66 65 
   4   0   0   0   6   0   0   0   0   0   0   0   0   0   0   0   8   0   0   0   0   0   0   0  10   5   8   0   0   5   0  15 99 98 93 90 89 87 86 83 82 76 75 72 71 70 66 
   5   0   0   0   0   0   0   0   0   0   0   0   0   0   0   0   0   1   0   0   0   0   6   0   0   0   0   0   0   3   0  13 97 93 87 86 82 81 80 78 76 73 72 71 59 
  10   6   0   0   0   9   0  10   0   0   0   0   0   0   0   0   0   0   0   0   0   0   0   0   0   0   0   0   6   7   0  12 100 95 89 87 83 75 74 72 71 69 65 60 
   1   0   0   0   0   0   0   0   0   0   0   0   0   5   0   0   0   7   0   0   2   0   0   0   0   0   0   0   0   0   0  10 86 85 79 76 75 71 70 68 66 54 
   9   0   0   0   7   0   0   0   0   0   0   0   0   0   0   0   0   0   0   0   0   0   0   0   0   0   7   0   0   0   0  11 91 88 86 80 79 75 71 70 68 66 65 
   7   0   6   0   0   0   0   0   0   0   0   0   0   0   0   0   0   0   4   7   0   0   0   0   0   0   0   0   0   0   0  10 99 94 85 82 78 74 72 70 69 63 
   8   0   0   0   0   0   0   0   0   0   0   0   0   0   8   4   0   0   0   0   0  10   0   0   0   0   0   0   0   5   0  11 89 88 85 83 81 80 79 74 71 70 69 
   7   0   0   0   0   0   0   0   0   0   0   0   0   0   0   0   0   0   6   0   0   0   0   0   0   0   0   0   0   7   0   9 97 87 77 76 74 73 72 71 70 
   1   9   0   0   0  10   6   0   0   0   0   0   8   0   0   0   0   0   0   0   4   0   0   0   0   0   0   0   0   8   0   8 96 87 86 75 74 73 71 67 
   1   0   5   0   0   0   0   0   0   0   0   0   8   0   5   0   0   0   0   5   0   0   0   0   0   0   0   6   0   0   0   8 94 90 80 79 78 76 71 70 
   7   0   0   0   0   0   0   6   0   0   0   0   0   0   0   0   0   6   0   0  10   0   0   0   2   4   0   0   0   0   0   7 96 83 76 72 71 70 65 
   6   0   0   0   0   0   0   0   0   0   0   0   0   0   0   0   0   0   0   0   0   0   7   0   4   0   0   0   0   0   0   6 93 85 83 76 73 70 
   5   0   0   5   0   0   0   0   0   7   0   0   0   0   0   0   0   0   0   0   0   8   0   0   6   0   0   0   0   0   8   6 84 83 75 74 70 69 
   7   0   0   0   0   0   0   0   0   0   0   0   0   0   0   0   0   0   0   0   0   0   0   0   0   0   0   0   0   9   0   5 82 79 73 70 69 
   6   0   0   0   0   0  10   0   0   6   6   0   0  10   0   0   0   0   0   0   0   0   0   0   0   0   0   0   0   0   0   5 87 80 78 76 74 
   2   0   0   0   0   0   0   0   0   0   0   0   0   0   0   0   0   0   8   4   0   0   0   0   5   0   0  10   0   6   6   4 82 80 77 73 
   8   0   0   6   0   0   0   0   0   0   0   0   0   0   0   0   0  10   0   0   0   0   0   0   0  10  10   0   0   0   0   4 88 81 76 75 
   7   0   0   0   0   0   0   0   0   0   0   0   0   0   0   0   0   0   0   0   0   0   0   0   0   0   0   8   0   4   4   4 79 78 72 69 
   8   0   0   0   0   0   0   0   0   0   0   0   0   0   0   0   0   0   0   0   0   0   0   0   0   0   0   0   7   0   0   4 92 80 77 69 
  10   0   7   0   0   0   0   0   0   0   9   0   0   0   0   9  10   0   7   9   0   0   0   0   0   0   0   5   0   3   0   3 78 69 65 
   6   0   0   0   0   0   0   0   0   0   0   0   0   0   0   0   0   0   0   0   0   0   0   0   0   0   0   0   0   7  10   3 84 77 75 
   6   5   0   0   0   0   7   7   0   0   0   0   7   0   0   0   0   0   0   0   0   0   0   0   0   0   0   0   0  10   0   3 78 76 70 
   1   0   0   0   0   0   0   0   0   0   0   0   6   0   8   0   0   5   0   0   0   0   5   0   0   0   0   4   0   0   0   3 90 77 72 
   3   0   0   0  10   7   0   0   0   0   0   0   8   0   0   0   0   0   0   0   0   0   0   0   0   0   0   0   0   0   0   2 72 69 
   5   0   0   0   0   0   0   0   0   0   0   0   0   0   0   0   0   0   0   0   5   0   0   0   0   0   6   0   0   0   7   2 75 71 
   8   0   0   0   0   0   0   0   0   0   0   6   0   0   0   0   0   0   0   0   0   4   0   5   0   0   0   0   0   0   0   2 75 73 
   6   0   0   0   0   0   0   0   0   0   0   0   8   0   0   0   0   0   0   0   0   0   6   0   0   0   0   0   0   0   0   1 73 
   4   0   6   0   0  10   0   0   0   7   0   0   0   0   0   0   0   0   0   0   0   0   0   0   0   0   0   0   0   0   0   1 69 
  10   8   0   0   4   3   0   0   0   0   0   0   0   0   0   0   0   0   0   7   0   0   0   0   8   0   0   0   0   0   0   1 72 
   9   0   0   0   0   0   0   0   0   6   4   0   0   0   0  10   0   5   0   0   0   0   6   0   0   0   0   0   0   0   0   1 74 
   5   0   0   0   0   0   0   0   0   0   0   0   0   0   0   0   5   0   0   0   0   0   0   0   8   7   0   0   8   0   0   1 102
   1   0   0   0   0   0   0   0   4   0   0   0   0   0   0   0   0   0   0   0   0   6   0   0   4   0   0   0   0   0   0   1 102
   9   4   0   0   0   0   0   0   0   0   0   0   0   0   6   0   0   0   0   0   0   0   0   0   0   0   0   0   0   0   0   1 102
   7   0   0   0   0   0   0   0   8   0   4   3   0   0   0   0   0   0   9   0   0   0   0   0   0   0   2   7   0   0   0   1 102
   5   0   0   0   0   0   3   0   0   0   0   0   0   3   0   0   0   0   0   0   0   0   0   7   0   0   0   0   0   0   9   1 102
   3   5   0   0   0   0   0   0   0   0   0   5   0   0   0   0   0   0   0   0   0   0   0   0   0   0   9   0   0   0   0   1 102
   2   0   0   0   0   0   0   0   0   9   0   0   0   0   0   0   0   0   0   0   7   0   0   0   0   0   7   0   0   0   0   1 102
   5   0  10   6   9   0   0   0   0   0   0   0   0   0   0   0   0   0   0   0   9   0   7   0   0   6   0   0   0   0   0   1 102
   2   0   0   0   0   4   0   7   0   0   0   0   0   7   0   0   7   0   0   0   0   4   0   0   0   0   4   0   0   0   0   1 102
   9   0   0   0   0   0   0   0   0   0   5   8   0   0   0   5   0   5   0   0   0   0   0   0   0   0   0   0   0   0   0   1 102
   1   0   0   0   0   0   0   0   0   0   0   0   0   0   0   5   0   0   0   0   0   6   0   5   0   0   0   0   7   0   0   1 102
  10   6   6   0   0   0   0   0   0   0  10   0   0   0   8   0   0   0   0   0   0   0   0   0   0   0   0   0   0   0   0   1 102
   6   0   0   0   0   0   0   9   0   0   7   0   0   0   0   0   0   6   0   0   0   0   0   0   0   0   0   0   0   0   0   1 102
   2   0   0   0   0   0   7   2   0   0   0   0   0   7   0   0   4   0   0   0   0   0   0   0   0   4   0   0   0   0   0   1 102
   5   0   0   0   0   0   0   0   0   0   0   0   0   0   5   0   0   0   8   0   0   0   0   0   0   0   0   0   0   0   0   1 102
   3   0   0   0   0   0   0   0   0   0   0   0   0   0   0   0   0   0   0   0   0   0   0   0   0   0   0   0   0   4   0   1 102
   5   0   0   0   0   0   0   7   0   0   0   0   0   0   0   0   0   0   0   0   0   0   0   0   6   0   0   0   0   0   0   1 102
   7   0   0   0   8   0   7   7   6   0   0   0   0   0   0   0   0   0   0   8   0   0   0   0   9   0   0   5   5   0   0   1 102
  10   0   0  10   0   0   0   0   0   0   0   0   0   6   0   0   0   0   0   0   0   0   0   0   0   0   0   0   0   0   0   1 102
   6   6   0   0   0   0   0   0   0   0   0   0   0   0   7   0   0   9  10   0   0   0   0   6   0   0   0   0   0   0   0   1 102
   8   0   0   6   0   0   0   0   0   0   0   8   0   0   0   0   6   0   0   8   0   0   0   0   0   0   0   0   0   0   0   1 102
   9   0   0   0   0   0   0   0   0   0   0   0   5   0   0   0   0   0   0   0   0   0   0   0   0   0   0   0   0   0   0   1 102
   1   0   0   0   6   3   0   0   0   0   0   0   0   0   6   0   0   0   0   0  10   0   0  10   0   0   5   0   6   0   0   1 102
   5   0   3   0   0   7   0   0   0   0   0   0   0   0   0   0   0   0   0   3   0   0   0   0   0   0   7   0   0   0   0   1 102
   7   0   0   0   0   0   0   7   4   0   0   0   0   0   0   4   0   0   0   0   0   0   0   8   0   0   9   0   0   0   2   1 102
   5   4   0   0   0   0   0   0   0   0   6   0   0   0   0   0   0   8   0   0   0   7   9   0   0   0   0   0   0   0   0   1 102
   3   0   0   0   6   3   5   0   0   0   0   0   0   0   0   0   0   0   0   0   0   0   9   7   0   0   0   0  10   0   0   1 102
   9   0   0   0   0   0   0   0   0   0   0  10   0   0   0   0   0   0   5   0   0   0   5   0   9   0   0   0   0   9   0   1 102
   6   0   0   6   0   8   0   0   0   0   0   0   0   0   0   0   0   0   0   7   0   0   0   0   0   0   0   0   0   0   0   1 102
   7   0   0   0   0   0   0   0   4   0   0   0   4   0   0   0   0   0   0   0   0   0   0   0   0   0   0   0   0   0   0   1 102
   6   0   0   0   0  10   3   0   0   0   0   0   0   0   7   0   0   0   5   0   0   0   0   0   0   0   0   0   0   0   0   1 102
   1   0   0   0   0   0   0   0   0   0   0   0   6   0   0   7   6   0   0   0   0   0   0   0   0   0   0   0   0   0   0   1 102
   6   0   0   0   0   0   0   5   0   2   0   0   0   0   0   0   0   0   4   0   0   0   4   0   0   0   0   0   0   0   0   1 102
   0   0   0   0   0   0   0   0   0   0   0   0   0   0   0   0   0   0   0   0   0   0   0   0   0   0   0   0   0   0   0   0 
